Route #1: 1 30 15 38 28 26 11 6 36 23 1 
Route #2: 1 1 17 21 22 34 10 8 14 31 37 20 1 
Route #3: 1 32 27 16 4 25 2 5 1 
Route #4: 1 13 24 9 1 
Route #5: 1 18 7 19 33 35 12 1 
Route #6: 1 3 29 1 

Cost 1352.73
Time 0.2902


 * Another infos *

 Iterations: 39 Time: 0.2902 sec - 0.0048 min - 0.0001 horas
0.0000 h 0.0048 min
Problem dimension: 39
